proyfinal/src/viki/013/experimentInOfficeAgust.take6.output/25bd09a7-ddac-45f1-944f-e974e4994a2c.als.out
Reading from standard input... Use '--help' for help.
============================[ Problem Statistics ]=============================
|                                                                             |
|  Number of variables:         87638                                         |
|  Number of clauses:          161767                                         |
|  Parse time:                   0.04 s                                       |
|                                                                             |
============================[ Search Statistics ]==============================
| Conflicts |          ORIGINAL         |          LEARNT          | Progress |
|           |    Vars  Clauses Literals |    Limit  Clauses Lit/Cl |          |
===============================================================================
|       100 |   63702   110016   274857 |    40339      100     24 | 27.312 % |
|       250 |   63702   110016   274857 |    44373      250     39 | 27.312 % |
|       475 |   63701   109972   274767 |    48810      474     38 | 27.313 % |
|       812 |   63674   109873   274507 |    53691      799     38 | 27.344 % |
|      1318 |   63517   109327   273218 |    59060     1295     47 | 27.523 % |
|      2077 |   63447   108953   272339 |    64966     2048     58 | 27.603 % |
|      3216 |   63447   108953   272339 |    71463     3187     70 | 27.603 % |
|      4924 |   63382   108703   271750 |    78609     4885     79 | 27.678 % |
|      7486 |   63382   108703   271750 |    86470     7447     78 | 27.678 % |
|     11330 |   53007    78346   197212 |    95117     9688     83 | 39.516 % |
===============================================================================
restarts              : 62
conflicts             : 15833          (6593 /sec)
decisions             : 71364          (0.00 % random) (29714 /sec)
propagations          : 25154157       (10473620 /sec)
conflict literals     : 1290924        (47.03 % deleted)
Memory used           : 34.25 MB
CPU time              : 2.40167 s

INDETERMINATE
